30
317
10
98
43
31
1
62
62
20
35
93
99
0 1
0 2
0 3
0 6
0 7
0 9
0 10
0 11
0 13
0 14
0 15
0 17
0 19
0 21
0 22
0 24
0 25
0 26
0 27
0 29
1 2
1 3
1 4
1 5
1 6
1 7
1 10
1 11
1 12
1 13
1 14
1 15
1 16
1 17
1 20
1 21
1 22
1 23
1 24
1 25
1 27
1 29
2 3
2 4
2 5
2 6
2 8
2 9
2 10
2 11
2 14
2 15
2 16
2 17
2 19
2 23
2 24
2 25
2 26
2 27
2 29
3 5
3 6
3 7
3 8
3 10
3 11
3 12
3 13
3 14
3 15
3 16
3 17
3 19
3 20
3 21
3 22
3 23
3 26
3 27
3 28
3 29
4 5
4 7
4 8
4 10
4 12
4 13
4 15
4 16
4 17
4 18
4 19
4 20
4 21
4 22
4 23
4 25
4 27
5 6
5 7
5 8
5 9
5 10
5 12
5 13
5 14
5 16
5 17
5 18
5 20
5 21
5 22
5 23
5 24
5 25
5 26
5 28
5 29
6 8
6 9
6 10
6 11
6 14
6 16
6 17
6 18
6 20
6 21
6 23
6 24
6 26
6 27
6 28
6 29
7 11
7 13
7 16
7 17
7 18
7 21
7 22
7 24
7 25
7 26
7 28
8 9
8 10
8 11
8 12
8 13
8 14
8 15
8 16
8 17
8 19
8 20
8 21
8 22
8 23
8 25
8 26
8 29
9 10
9 11
9 12
9 16
9 19
9 20
9 21
9 22
9 23
9 24
9 25
9 26
9 27
9 29
10 12
10 13
10 14
10 15
10 16
10 18
10 19
10 20
10 22
10 23
10 25
10 26
10 29
11 13
11 14
11 15
11 16
11 17
11 18
11 19
11 20
11 21
11 23
11 24
11 25
11 27
11 28
11 29
12 14
12 17
12 18
12 22
12 23
12 24
12 26
12 27
12 28
13 14
13 15
13 16
13 18
13 19
13 20
13 21
13 23
13 24
13 25
13 26
13 27
13 28
13 29
14 15
14 17
14 18
14 19
14 20
14 21
14 23
14 24
14 29
15 18
15 21
15 22
15 23
15 24
15 25
15 27
15 28
15 29
16 18
16 19
16 20
16 21
16 22
16 23
16 24
16 25
16 26
16 28
16 29
17 18
17 19
17 21
17 22
17 23
17 24
17 25
17 27
17 28
18 20
18 21
18 22
18 23
18 24
18 25
18 27
18 28
18 29
19 20
19 22
19 23
19 24
19 25
19 28
19 29
20 21
20 22
20 23
20 24
20 25
20 26
20 27
20 28
20 29
21 23
21 26
21 27
21 28
21 29
22 23
22 24
22 25
22 26
23 24
23 25
23 26
23 27
23 28
23 29
24 26
24 27
25 26
25 27
25 28
25 29
26 27
26 28
27 28
27 29
28 29
24 12 13
17 14 26
22 2 16
15 7 23
4 11 20
21 19 29
18 1 0
5 3 27
8 25 6
10 9 28
